Route #1: 2 48 38 16 9 32 34 19 15 49
Route #2: 13 46 26 22 17 50 12 45 4
Route #3: 23 14 39 24 31 3 28 11 21
Route #4: 1 30 18 20 42 40
Route #5: 25 36 6 44 10 8 27
Route #6: 29 5 51 7 43 35 33
Route #7: 37 47 41
Cost 771